NAME : instances/diverse-tsp/instance-28.tsp
COMMENT : No Comment
TYPE : TSP
DIMENSION: 45
EDGE_WEIGHT_TYPE : EUC_2D
NODE_COORD_SECTION
1 109 886 
2 935 1953 
3 1561 1234 
4 1042 1317 
5 1744 92 
6 658 1072 
7 35 1148 
8 642 367 
9 510 1683 
10 340 782 
11 1631 1601 
12 1604 636 
13 1321 84 
14 974 1415 
15 1562 1759 
16 883 1463 
17 1917 68 
18 578 1646 
19 1536 296 
20 164 702 
21 1117 804 
22 187 1856 
23 1089 1795 
24 327 1217 
25 992 50 
26 1356 1311 
27 1031 1086 
28 1836 1297 
29 886 1628 
30 904 1190 
31 1075 1460 
32 324 487 
33 1551 246 
34 663 849 
35 869 774 
36 566 1078 
37 586 237 
38 1176 1605 
39 278 105 
40 1487 1128 
41 1905 854 
42 1189 694 
43 1514 1661 
44 46 1693 
45 550 334 
EOF
